WARNING: for repeatability, setting FPU to use double precision
============================[ Problem Statistics ]=============================
|                                                                             |
|  Number of variables:            50                                         |
|  Number of clauses:             218                                         |
|  Parse time:                   0.00 s                                       |
|                                                                             |
============================[ Search Statistics ]==============================
| Conflicts |          ORIGINAL         |          LEARNT          | Progress |
|           |    Vars  Clauses Literals |    Limit  Clauses Lit/Cl |          |
===============================================================================
===============================================================================
restarts              : 1
conflicts             : 75             (49768 /sec)
decisions             : 88             (0.00 % random) (58394 /sec)
propagations          : 890            (590577 /sec)
conflict literals     : 282            (14.55 % deleted)
Memory used           : 20.00 MB
CPU time              : 0.001507 s

UNSATISFIABLE
